1111100 AB
347 368 389 409 434 458 482 506 530 553 598 644 670 695 720 743 766 789 813 838 861 884 907 930 954 978 1002 1025 1050 1076 1102 1127 1151 1174 1221 1267 1292 1317 1343 1369 1395 1416 1437 18 39
1111100 BA
322 343 364 385 406 427 453 477 501 525 549 572 617 663 689 714 739 762 785 808 832 857 880 903 926 949 973 997 1021 1045 1070 1096 1122 1146 1170 1193 1240 1284 1309 1334 1360 1386 1412 1433 14
0000011 AB
350 392 434 478 524 568 594 617 640 664 686 730 753 776 798 820 842 865 888 910 955 1000 1044 1067 1089 1112 1134 1156 1200 1224 1244 1266 1286 1307 1326 1349 1393 1437 38
0000011 BA
325 367 409 452 496 519 542 586 612 635 658 682 704 748 771 794 816 838 860 883 906 928 973 1018 1062 1085 1107 1130 1152 1174 1218 1242 1262 1283 1303 1324 1366 1410 14
